50
     8    23    42    75    54    28    80    83    99    19    64    43    78   100    24    18    43    17    58    59    59    55    27    12    10    42    57    11    93    45    44    81    20    71    44    37    22    70    82    86    43    30    49    25    43    81    99    41    98    93
     5     1     2     6     6     5    10     8     2     1     2    10     7    10     9     7     9     2     4     3     1     2     8     2     2     6     3     9     4     3    10     3     3     2     9     4     2     6     2     4     7     1     7     9    10     3     5     3     5     2
  1622  1541   982  2207  2311  1457  1981  2038   807  1834   933  1661  1613  1233  2126  1797  2228  2180  2187  2072  2099   857   978  1165  1516   802   870   828  1264  1048  2145  1382  1517  2076  2264  1083  1494  1701  2118   925  1446  1030  2203   903  2318  1890  1117  1713  1534  1943
